<number of tasks>
20


<number of equipment>
5


<cycle time>
1000


<investment costs>
1,12038
2,14859
3,22272
4,27170
5,15692


<task times>
1,-1,168,116,59,-1
2,210,-1,146,88,-1
3,-1,183,115,235,-1
4,210,-1,176,61,-1
5,-1,168,99,66,-1
6,-1,107,101,58,-1
7,-1,164,-1,-1,153
8,-1,113,81,53,-1
9,191,-1,89,48,-1
10,184,-1,107,64,-1
11,195,-1,102,69,-1
12,192,-1,133,105,-1
13,-1,170,-1,-1,160
14,-1,152,97,59,-1
15,186,-1,97,57,-1
16,191,-1,112,79,-1
17,-1,112,92,41,-1
18,178,-1,112,104,-1
19,141,-1,106,91,-1
20,-1,178,-1,-1,183


<precedence relations>
1,7
2,7
3,7
4,7
5,9
6,8
6,10
7,11
7,12
7,13
7,14
9,15
10,16
11,17
12,18
17,20
18,19


<task types>
1,2
2,3
3,2
4,3
5,2
6,2
7,1
8,2
9,3
10,3
11,3
12,3
13,1
14,2
15,3
16,3
17,2
18,3
19,3
20,1


<line depot>
1,0
2,2
3,1
4,1
5,0


<processing costs>
1,7200
2,14400
3,14400
4,14400
5,7200


<saving costs>
1,1203
2,1485
3,2227
4,2717
5,1569


<end>
